CMD:
./solvers/bin/cadical --plain --no-reduce -t 1600 ./data/cnfs//zipcpu-zipmmu-p00/zipcpu-zipmmu-p00.32.cnf

c --- [ banner ] -------------------------------------------------------------
c 
c CaDiCaL SAT Solver
c Copyright (c) 2016-2024
c A. Biere, M. Fleury, N. Froleyks, K. Fazekas, F. Pollitt, T. Faller
c JKU Linz, University of Freiburg, TU Wien
c 
c Version 2.1.3 5296d3d2a9bf48c154ab2acb5e44625776d821bf
c g++ (Gentoo 12.3.1_p20230526 p2) 12.3.1 20230526 -Wall -Wextra -O3 -DNDEBUG
c Sat Aug 9 07:26:21 PDT 2025 Linux cedar2.int.cedar.computecanada.ca 5.14.0-362.24.2.el9_3.x86_64 x86_64
c 
c --- [ limit ] --------------------------------------------------------------
c 
c setting time limit to 1600 seconds real time (due to '-t 1600')
c 
c --- [ parsing input ] ------------------------------------------------------
c 
c reading DIMACS file from './data/cnfs//zipcpu-zipmmu-p00/zipcpu-zipmmu-p00.32.cnf'
c opening file to read './data/cnfs//zipcpu-zipmmu-p00/zipcpu-zipmmu-p00.32.cnf'
c found 'p cnf 157116 459139' header
c parsed 459139 clauses in 0.09 seconds process time
c 
c --- [ options ] ------------------------------------------------------------
c 
c   --compact=false                (different from default 'true')
c   --decompose=false              (different from default 'true')
c   --deduplicate=false            (different from default 'true')
c   --elim=false                   (different from default 'true')
c   --probe=false                  (different from default 'true')
c   --reduce=false                 (different from default 'true')
c   --subsume=false                (different from default 'true')
c   --ternary=false                (different from default 'true')
c   --transred=false               (different from default 'true')
c   --vivify=false                 (different from default 'true')
c 
c --- [ solving ] ------------------------------------------------------------
c 
c time measured in process time since initialization
c 
c  seconds  reductions  redundant  irredundant
c         MB    restarts       trail       variables
c          level   conflicts       glue          remaining
c 
c *  0.09 74  0 0   0    0    0  0% 0 450519 151402 96%
c {  0.12 76  0 0   0    0    0  0% 0 450519 151402 96%
c i  0.12 76  0 0   0    1    0  4% 0 450519 151241 96%
c i  0.12 76  1 0   0    2    0  4% 0 450519 151240 96%
c i  0.12 76  1 0   0    3    0  4% 0 450519 151222 96%
c i  0.17 77 295 0  21  302  209 20% 4 450519 151214 96%
c i  0.17 77 243 0  32  368  265 18% 4 450519 151206 96%
c i  0.18 77 226 0  36  399  293 18% 4 450519 151204 96%
c i  0.18 77 225 0  36  400  293 18% 4 450519 151192 96%
c i  0.18 77 220 0  37  407  299 18% 4 450519 151186 96%
c i  0.18 77 193 0  37  461  349 17% 4 450519 151137 96%
c i  0.19 77 164 0  43  544  427 16% 4 450519 150574 96%
c i  0.21 77 135 0  55  762  619 16% 4 450519 149914 95%
c i  0.22 77 127 0  58  838  687 16% 4 450519 149883 95%
c i  0.22 77 120 0  58  921  758 16% 4 450519 149876 95%
c i  0.22 77 120 0  58  922  758 16% 4 450519 149875 95%
c }  0.23 77 114 0  71 1002  834 16% 4 450519 149875 95%
c [  0.23 77  0 0  71 1002  834  0% 0 450519 149875 95%
c O  0.25 77 3145 0  71 1003  835 93% 3 450519 149875 95%
c i  0.32 78 2676 0  71 1758 1545 78% 8 450519 149868 95%
c 
c  seconds    reductions  redundant  irredundant
c         MB      restarts       trail       variables
c           level    conflicts       glue          remaining
c 
c i  0.36 78 2640 0  72 2053 1832 77% 9 450519 149559 95%
c i  0.54 78 1731 0  72 2933 2612 56% 8 450519 149539 95%
c ]  0.54 78 1674 0  72 3002 2677 54% 7 450519 149539 95%
c {  0.54 78 114 0  72 3002 2677 16% 4 450519 149539 95%
c F  0.55 78 113 0  73 3004 2678 16% 4 450519 149532 95%
c i  0.55 78 113 0  73 3004 2678 16% 4 450519 149241 95%
c i  0.56 78 105 0  98 3145 2803 16% 4 450519 149185 95%
c i  0.57 78 105 0  98 3174 2826 16% 4 450519 149176 95%
c i  0.57 78 102 0 103 3276 2916 16% 4 450519 149161 95%
c i  0.59 78 95 0 123 3512 3138 16% 4 450519 149148 95%
c i  0.60 78 92 0 137 3581 3194 15% 4 450519 149145 95%
c i  0.61 78 89 0 154 3650 3258 15% 4 450519 149118 95%
c i  0.67 78 75 0 255 4191 3706 14% 4 450519 149115 95%
c i  0.76 79 63 0 393 5180 4622 14% 5 450519 149114 95%
c i  0.80 79 57 0 401 5853 5256 13% 5 450519 149112 95%
c #  0.82 79 56 0 434 6006 5400 13% 5 450519 149112 95%
c i  0.89 79 53 0 534 6514 5870 13% 5 450519 149104 95%
c }  0.94 79 50 0 614 7003 6315 13% 5 450519 149104 95%
c [  0.94 79 1674 0 614 7003 6315 54% 7 450519 149104 95%
c i  0.99 79 1303 0 615 7573 6833 45% 9 450519 149102 95%
c 
c  seconds    reductions  redundant  irredundant
c         MB      restarts       trail       variables
c           level    conflicts       glue          remaining
c 
c i  1.00 79 1243 0 615 7695 6944 43% 9 450519 149078 95%
c I  1.20 80 676 0 616 10009 9088 28% 10 450519 149078 95%
c i  1.55 80 404 0 619 13576 12382 22% 12 450519 149077 95%
c ]  1.71 81 350 0 619 15003 13693 21% 13 450519 149077 95%
... skipped 8 lines ...
c i  1.80 81 47 0 686 15520 14083 13% 5 450519 147824 94%
c i  1.89 81 45 0 789 15950 14478 13% 5 450519 147793 94%
c i  1.92 81 45 0 825 16142 14645 13% 5 450519 147718 94%
c i  1.93 81 45 0 842 16227 14718 13% 5 450519 147610 94%
c i  1.93 81 45 0 843 16231 14721 13% 5 450519 147602 94%
c i  1.97 82 44 0 886 16437 14918 13% 5 450519 147456 94%
c i  2.06 82 42 0 971 17096 15493 13% 6 450519 147438 94%
c i  2.18 82 40 0 1159 18098 16390 12% 6 450519 147422 94%
c 
c  seconds  reductions     redundant  irredundant
c         MB    restarts          trail       variables
c          level     conflicts        glue          remaining
c 
c i  2.23 82 39 0 1246 18498 16765 12% 6 450519 145816 93%
c i  2.39 82 37 0 1483 19723 17894 12% 6 450519 145409 93%
c i  2.51 82 36 0 1622 20818 18902 12% 6 450519 145406 93%
c i  2.51 82 35 0 1635 20887 18959 12% 6 450519 145404 93%
c i  2.52 82 35 0 1643 20918 18985 12% 6 450519 145403 93%
c W  2.66 84 35 0 1647 21017 15039 12% 6 411479 145403 93%
c i  2.75 84 34 0 1763 21771 15750 12% 6 411479 145319 92%
c i  2.75 84 34 0 1784 21857 15829 12% 6 411479 145304 92%
c i  2.81 84 34 0 1880 22229 16172 12% 6 411479 145299 92%
c i  2.85 84 34 0 1933 22550 16470 12% 6 411479 145298 92%
c i  2.98 84 32 0 2127 23694 17530 12% 6 411479 145293 92%
c i  2.98 84 32 0 2127 23695 17530 12% 6 411479 145286 92%
c i  3.21 84 30 0 2397 26105 19689 12% 7 411479 145284 92%
c i  3.30 84 30 0 2530 26841 20329 12% 7 411479 145236 92%
c i  3.38 84 29 0 2633 27684 21037 12% 7 411479 145217 92%
c F  3.41 84 28 0 2644 28018 21320 12% 7 411479 145217 92%
c i  3.42 84 28 0 2673 28170 21453 12% 7 411479 145186 92%
c i  3.46 84 28 0 2674 28737 21885 12% 7 411479 145172 92%
c i  3.46 84 28 0 2674 28768 21907 12% 7 411479 145164 92%
c i  3.46 84 28 0 2674 28810 21918 12% 7 411479 145162 92%
c 
c  seconds  reductions     redundant  irredundant
c         MB    restarts          trail       variables
c          level     conflicts        glue          remaining
c 
c i  3.48 84 27 0 2674 29103 22147 12% 7 411479 145160 92%
c i  3.49 84 27 0 2674 29115 22154 12% 7 411479 145133 92%
c i  3.49 84 27 0 2674 29141 22175 12% 7 411479 145119 92%
c i  3.50 84 27 0 2674 29279 22247 12% 7 411479 145080 92%
c i  3.50 84 27 0 2674 29284 22251 12% 7 411479 145068 92%
c i  3.50 84 27 0 2674 29287 22253 12% 7 411479 145036 92%
c }  3.50 84 27 0 2674 29290 22253 12% 7 411479 145005 92%
c 0  3.50 84 27 0 2674 29290 22253 12% 7 411479 145005 92%
c 
c --- [ result ] -------------------------------------------------------------
c 
s UNSATISFIABLE
c 
c --- [ run-time profiling ] -------------------------------------------------
c 
c process time taken by individual solving procedures
c (percentage relative to process time for solving)
c 
c         3.41  100.00% search
c         2.16   63.36% unstable
c         1.09   31.84% stable
c         0.13    3.78% walk
c         0.09    2.55% parse
c         0.03    1.02% lucky
c         0.00    0.00% simplify
c   =================================
c         3.41   97.50% solve
c 
c last line shows process time for solving
c (percentage relative to total process time)
c 
c --- [ statistics ] ---------------------------------------------------------
c 
c chronological:              8941        30.53 %  of conflicts
c conflicts:                 29290      8593.84    per second
c decisions:                118087     34647.35    per second
c fixed:                     12016         7.65 %  of all variables
c learned:                   28280        96.55 %  per conflict
c learned_lits:            1018100       100.00 %  learned literals
c minimized:                     0         0.00 %  learned literals
c shrunken:                 221086        21.72 %  learned literals
c minishrunken:             211817        20.81 %  learned literals
c otfs:                        155         0.53 %  of conflict
c propagations:           53530458        15.71 M  per second
c rephased:                      7      4184.29    interval
c restarts:                   2674        10.95    interval
c stabilizing:                   2        34.14 %  of conflicts
c subsumed:                   1935         0.40 %  of all clauses
c strengthened:                155         0.03 %  of all clauses
c walked:                        1     29290.00    interval
c 
c seconds are measured in process time for solving
c 
c --- [ resources ] ----------------------------------------------------------
c 
c total process time since initialization:         3.50    seconds
c total real time since initialization:            3.51    seconds
c maximum resident set size of process:           85.28    MB
c 
c --- [ shutting down ] ------------------------------------------------------
c 
c exit 20
